VER
4

OBJSENSE
MIN

QCECONES
1 2
2
9 9
1


VAR
47 1
F 47

CON
3415 4
@0:SVECQCE 3322
SVECQE 47
SVECPSD 45
L= 1

OBJACOORD
2
0 1.0
1 1.0

ACOORD
110
0 0 1.0
1 2 1.0
46 3 1.0
55 4 1.0
172 5 1.0
181 6 1.0
190 7 1.0
379 8 1.0
388 9 1.0
397 10 1.0
406 11 1.0
667 12 1.0
676 13 1.0
685 14 1.0
694 15 1.0
703 16 1.0
1036 17 1.0
1045 18 1.0
1054 19 1.0
1063 20 1.0
1072 21 1.0
1081 22 1.0
1486 23 1.0
1495 24 1.0
1504 25 1.0
1513 26 1.0
1522 27 1.0
1531 28 1.0
1540 29 1.0
2017 30 1.0
2026 31 1.0
2035 32 1.0
2044 33 1.0
2053 34 1.0
2062 35 1.0
2071 36 1.0
2080 37 1.0
2629 38 1.0
2638 39 1.0
2647 40 1.0
2656 41 1.0
2665 42 1.0
2674 43 1.0
2683 44 1.0
2692 45 1.0
2701 46 1.0
3322 1 1.0
3324 2 1.0
3324 4 1.0
3324 7 1.0
3324 11 1.0
3324 16 1.0
3324 22 1.0
3324 29 1.0
3324 37 1.0
3324 46 1.0
3369 2 1.0
3370 3 1.0
3371 4 1.0
3372 5 1.0
3373 6 1.0
3374 7 1.0
3375 8 1.0
3376 9 1.0
3377 10 1.0
3378 11 1.0
3379 12 1.0
3380 13 1.0
3381 14 1.0
3382 15 1.0
3383 16 1.0
3384 17 1.0
3385 18 1.0
3386 19 1.0
3387 20 1.0
3388 21 1.0
3389 22 1.0
3390 23 1.0
3391 24 1.0
3392 25 1.0
3393 26 1.0
3394 27 1.0
3395 28 1.0
3396 29 1.0
3397 30 1.0
3398 31 1.0
3399 32 1.0
3400 33 1.0
3401 34 1.0
3402 35 1.0
3403 36 1.0
3404 37 1.0
3405 38 1.0
3406 39 1.0
3407 40 1.0
3408 41 1.0
3409 42 1.0
3410 43 1.0
3411 44 1.0
3412 45 1.0
3413 46 1.0
3414 2 1.0
3414 4 1.0
3414 7 1.0
3414 11 1.0
3414 16 1.0
3414 22 1.0
3414 29 1.0
3414 37 1.0
3414 46 1.0

BCOORD
2
3323 -1.0
3414 1.0
